Route #1: 15 8 17 42 21 10
Route #2: 6 31 30 14 38 13 3
Route #3: 22 46 23 41 45 35
Route #4: 32 19 29 28 1
Route #5: 39 5 20
Route #6: 27 12 36 11 16 43 49 33
Route #7: 25 4 18 26 47 24 9 37
Route #8: 44 7 40 48 34 2
Cost 1328